5
15
0 98 20 21 74 18 22 76 36 91 42 84 86 64 63
24
0 50 44 2 31 56 85 8 89 68 28 30 34 51 5 97 72 66 45 16 19 17 53 43
20
0 99 96 29 46 37 59 54 40 83 23 15 35 55 71 33 26 47 14 70
22
0 88 67 90 94 77 82 12 9 81 27 41 92 39 24 10 7 11 73 61 75 79
24
0 48 62 25 69 57 32 93 6 49 78 100 3 58 38 1 87 4 52 60 13 65 80 95
